%%% static parameters %%%
timespan = 1;
Fact = [4];
Distr1 = [15];
Distr2 = [30];
Clients_N = [1000];
Demand_W = [15];
Lt0 = [4];
Lt1 = [4];
SS_ = [0.85];
DS_D = [8];
K = [200];
MA = [500];
%%% dynamic parameters %%%
lost_ratio_sales_ret_th = 0.5331757524638456;
lost_ratio_sales_ret_w = 16;
lost_ratio_sales_dis_th = 0.20281047957763143;
lost_ratio_sales_dis_w = 9;
lost_ratio_sales_fac_th = 0.2614872088948125;
lost_ratio_sales_fac_w = 65;
stock_customer_MA_mean_relative_th = 0.036694850506760246;
stock_customer_MA_mean_relative_w = 47;
stock_distributor_MA_mean_relative_th = 0.32378831643708395;
stock_distributor_MA_mean_relative_w = 8;
stock_retailer_MA_mean_relative_th = 0.714120015480005;
stock_retailer_MA_mean_relative_w = 43;
stock_factory_MA_mean_relative_th = 0.6324705495349439;
stock_factory_MA_mean_relative_w = 48;
